 vasp.5.3.2 13Sep12 (build Jun 30 2016 14:08:18) complex

 executed on             LinuxIFC date 2017.11.09  16:17:52

 INCAR:
 POTCAR:    PAW Al
 POTCAR:    PAW Al
   VRHFIN =Al: s2p1

   TITEL  = PAW Al
   POMASS =   26.982; ZVAL   =    3.000    mass and valenz
   ENMAX  =  240.437; ENMIN  =  180.327 eV
   QCUT   =   -4.204; QGAM   =    8.408    optimization parameters

   Description
     l     E      TYP  RCUT    TYP  RCUT
     0   .000     23  1.900
     0   .000     23  1.900
     1   .000     23  1.900
     1  1.000     23  1.900
     2   .000      7  1.900

  PAW Al                                :

 POSCAR: Al
  positions in direct lattice
 exchange correlation table for  LEXCH =        7
   RHO(1)=    0.500       N(1)  =     2000
   RHO(2)=  100.500       N(2)  =     4000

 ion  position               nearest neighbor table
   1  0.000  0.000  0.000-

  LATTYP: Found a face centered cubic cell.
 ALAT       =     4.0500000000

  Lattice vectors:

 A1 = (   0.0000000000,   2.0250000000,   2.0250000000)
 A2 = (   2.0250000000,   0.0000000000,   2.0250000000)
 A3 = (   2.0250000000,   2.0250000000,   0.0000000000)

Analysis of symmetry for initial positions (statically):
 Subroutine PRICEL returns:
 Original cell was already a primitive cell.

 Routine SETGRP: Setting up the symmetry group for a
 face centered cubic supercell.

 Subroutine GETGRP returns: Found 48 space group operations
 (whereof 48 operations were pure point group operations)
 out of a pool of 48 trial point group operations.

The static configuration has the point symmetry O_h .

Analysis of symmetry for dynamics (positions and initial velocities):
 Subroutine PRICEL returns:
 Original cell was already a primitive cell.

 Routine SETGRP: Setting up the symmetry group for a
 face centered cubic supercell.

 Subroutine GETGRP returns: Found 48 space group operations
 (whereof 48 operations were pure point group operations)
 out of a pool of 48 trial point group operations.

The dynamic configuration has the point symmetry O_h .

 KPOINTS: K-points along high symmetry lines for F
  interpolating k-points between supplied coordinates
  k-points in reciprocal lattice

 I would recommend the setting:
   dimension x,y,z NGX =    11 NGY =   11 NGZ =   11
 SYSTEM =  Al
 POSCAR =  Al

 Startparameter for this run:
   NWRITE =      2    write-flag & timer
   PREC   = normal    normal or accurate (medium, high low for compatibility)
   ISTART =      0    job   : 0-new  1-cont  2-samecut
   ICHARG =     11    charge: 1-file 2-atom 10-const
   ISPIN  =      1    spin polarized calculation?
   LNONCOLLINEAR =      F non collinear calculations
   LSORBIT =      F    spin-orbit coupling
   INIWAV =      1    electr: 0-lowe 1-rand  2-diag
   LASPH  =      F    aspherical Exc in radial PAW
   METAGGA=      F    non-selfconsistent MetaGGA calc.

 Electronic Relaxation 1
   ENCUT  =  240.4 eV  17.67 Ry    4.20 a.u.   3.62  3.62  3.62*2*pi/ulx,y,z
   ENINI  =  240.4     initial cutoff
   ENAUG  =  291.1 eV  augmentation charge cutoff
   NELM   =     60;   NELMIN=  2; NELMDL= -5     # of ELM steps
   EDIFF  = 0.1E-05   stopping-criterion for ELM
   LREAL  =      F    real-space projection
   NLSPLINE    = F    spline interpolate recip. space projectors
   LCOMPAT=      F    compatible to vasp.4.4
   GGA_COMPAT  = T    GGA compatible to vasp.4.4-vasp.4.6
   LMAXPAW     = -100 max onsite density
   LMAXMIX     =    2 max onsite mixed and CHGCAR
   VOSKOWN=      0    Vosko Wilk Nusair interpolation
   ROPT   =    0.00000
 Ionic relaxation
   EDIFFG = 0.1E-04   stopping-criterion for IOM
   NSW    =      0    number of steps for IOM
   NBLOCK =      1;   KBLOCK =      1    inner block; outer block
   IBRION =     -1    ionic relax: 0-MD 1-quasi-New 2-CG
   NFREE  =      0    steps in history (QN), initial steepest desc. (CG)
   ISIF   =      2    stress and relaxation
   IWAVPR =     10    prediction:  0-non 1-charg 2-wave 3-comb
   ISYM   =      2    0-nonsym 1-usesym 2-fastsym
   LCORR  =      T    Harris-Foulkes like correction to forces

   POTIM  = 0.5000    time-step for ionic-motion
   TEIN   =    0.0    initial temperature
   TEBEG  =    0.0;   TEEND  =   0.0 temperature during run
   SMASS  =  -3.00    Nose mass-parameter (am)
   estimated Nose-frequenzy (Omega)   =  0.10E-29 period in steps =****** mass=  -0.187E-27a.u.
   SCALEE = 1.0000    scale energy and forces
   NPACO  =    256;   APACO  = 16.0  distance and # of slots for P.C.
   PSTRESS=    0.0 pullay stress

  Mass of Ions in am
   POMASS =  26.98
  Ionic Valenz
   ZVAL   =   3.00
  Atomic Wigner-Seitz radii
  virtual crystal weights
   VCA    =   1.00
   NELECT =       3.0000    total number of electrons
   NUPDOWN=      -1.0000    fix difference up-down

 DOS related values:
   EMIN   =  10.00;   EMAX   =-10.00  energy-range for DOS
   EFERMI =   0.00
   ISMEAR =     1;   SIGMA  =   0.20  broadening in eV -4-tet -1-fermi 0-gaus

 Electronic relaxation 2 (details)
   IALGO  =     38    algorithm
   LDIAG  =      T    sub-space diagonalisation (order eigenvalues)
   LSUBROT=      T    optimize rotation matrix (better conditioning)
   TURBO    =      0    0=normal 1=particle mesh
   IRESTART =      0    0=no restart 2=restart with 2 vectors
   NREBOOT  =      0    no. of reboots
   NMIN     =      0    reboot dimension
   EREF     =   0.00    reference energy to select bands
   IMIX   =      4    mixing-type and parameters
     AMIX     =   0.40;   BMIX     =  1.00
     AMIX_MAG =   1.60;   BMIX_MAG =  1.00
     AMIN     =   0.10
     WC   =   100.;   INIMIX=   1;  MIXPRE=   1;  MAXMIX= -45

 Intra band minimization:
   WEIMIN = 0.0000     energy-eigenvalue tresh-hold
   EBREAK =  0.50E-07  absolut break condition
   DEPER  =   0.30     relativ break condition

   TIME   =   0.40     timestep for ELM

  volume/ion in A,a.u.               =      16.61       112.07
  Fermi-wavevector in a.u.,A,eV,Ry     =   0.925437  1.748822 11.652489  0.856434
  Thomas-Fermi vector in A             =   2.051291

 Write flags
   LWAVE  =      F    write WAVECAR
   LCHARG =      F    write CHGCAR
   LVTOT  =      F    write LOCPOT, total local potential
   LVHAR  =      F    write LOCPOT, Hartree potential only
   LELF   =      F    write electronic localiz. function (ELF)
   LORBIT =      0    0 simple, 1 ext, 2 COOP (PROOUT)

 Dipole corrections
   LMONO  =      F    monopole corrections only (constant potential shift)
   LDIPOL =      F    correct potential (dipole corrections)
   IDIPOL =      0    1-x, 2-y, 3-z, 4-all directions
   EPSILON=  1.0000000 bulk dielectric constant

 Exchange correlation treatment:
   GGA     =    --    GGA type
   VOSKOWN=      0    Vosko Wilk Nusair interpolation
   LHFCALC =     F    Hartree Fock is set to
   LHFONE  =     F    Hartree Fock one center treatment
   AEXX    =    0.0000 exact exchange contribution

 Linear response parameters
   LEPSILON=     F    determine dielectric tensor
   LRPA    =     F    only Hartree local field effects (RPA)
   LNABLA  =     F    use nabla operator in PAW spheres
   LVEL    =     F    velocity operator in full k-point grid
   LINTERFAST=   F  fast interpolation
   KINTER  =     0    interpolate to denser k-point grid
   CSHIFT  =0.1000    complex shift for real part using Kramers Kronig
   OMEGAMAX=  -1.0    maximum frequency
   DEG_THRESHOLD= 0.2000000E-02 threshold for treating states as degnerate
   RTIME   =    0.100 relaxation time in fs

 Orbital magnetization related:
   ORBITALMAG=     F  switch on orbital magnetization
   LCHIMAG   =     F  perturbation theory with respect to B field
   DQ        =  0.001000  dq finite difference perturbation B field

 Static calculation
 charge density and potential remain constant during run
 non-spin polarized calculation
 Variant of blocked Davidson
 Davidson routine will perform the subspace rotation
 perform sub-space diagonalisation
    after iterative eigenvector-optimisation
 no mixing
 using additional bands            3
 reciprocal scheme for non local part
 use partial core corrections
 calculate Harris-corrections to forces
   (improved forces if not selfconsistent)
 use gradient corrections
 WARNING: stress and forces are not correct
  (second derivative of E(xc) not defined)
 use of overlap-Matrix (Vanderbilt PP)
 Methfessel and Paxton  Order N= 1 SIGMA  =   0.20

  energy-cutoff  :      240.44
  volume of cell :       16.61
      direct lattice vectors                 reciprocal lattice vectors
     0.000000000  2.025000000  2.025000000    -0.246913580  0.246913580  0.246913580
     2.025000000  0.000000000  2.025000000     0.246913580 -0.246913580  0.246913580
     2.025000000  2.025000000  0.000000000     0.246913580  0.246913580 -0.246913580

  length of vectors
     2.863782464  2.863782464  2.863782464     0.427666866  0.427666866  0.427666866

 k-points in units of 2pi/SCALE and weight: K-points along high symmetry lines for F
   0.50000000  0.50000000  0.50000000       0.003
   0.50641026  0.48717949  0.50641026       0.003
   0.51282051  0.47435897  0.51282051       0.003
   0.51923077  0.46153846  0.51923077       0.003
   0.52564103  0.44871795  0.52564103       0.003
   0.53205128  0.43589744  0.53205128       0.003
   0.53846154  0.42307692  0.53846154       0.003
   0.54487179  0.41025641  0.54487179       0.003
   0.55128205  0.39743590  0.55128205       0.003
   0.55769231  0.38461538  0.55769231       0.003
   0.56410256  0.37179487  0.56410256       0.003
   0.57051282  0.35897436  0.57051282       0.003
   0.57692308  0.34615385  0.57692308       0.003
   0.58333333  0.33333333  0.58333333       0.003
   0.58974359  0.32051282  0.58974359       0.003
   0.59615385  0.30769231  0.59615385       0.003
   0.60256410  0.29487179  0.60256410       0.003
   0.60897436  0.28205128  0.60897436       0.003
   0.61538462  0.26923077  0.61538462       0.003
   0.62179487  0.25641026  0.62179487       0.003
   0.62820513  0.24358974  0.62820513       0.003
   0.63461538  0.23076923  0.63461538       0.003
   0.64102564  0.21794872  0.64102564       0.003
   0.64743590  0.20512821  0.64743590       0.003
   0.65384615  0.19230769  0.65384615       0.003
   0.66025641  0.17948718  0.66025641       0.003
   0.66666667  0.16666667  0.66666667       0.003
   0.67307692  0.15384615  0.67307692       0.003
   0.67948718  0.14102564  0.67948718       0.003
   0.68589744  0.12820513  0.68589744       0.003
   0.69230769  0.11538462  0.69230769       0.003
   0.69871795  0.10256410  0.69871795       0.003
   0.70512821  0.08974359  0.70512821       0.003
   0.71153846  0.07692308  0.71153846       0.003
   0.71794872  0.06410256  0.71794872       0.003
   0.72435897  0.05128205  0.72435897       0.003
   0.73076923  0.03846154  0.73076923       0.003
   0.73717949  0.02564103  0.73717949       0.003
   0.74358974  0.01282051  0.74358974       0.003
   0.75000000  0.00000000  0.75000000       0.003
   0.75000000  0.00000000  0.75000000       0.003
   0.75641026  0.00000000  0.74358974       0.003
   0.76282051  0.00000000  0.73717949       0.003
   0.76923077  0.00000000  0.73076923       0.003
   0.77564103  0.00000000  0.72435897       0.003
[...]
   0.32692308  0.75000000  0.42307692       0.003
   0.32371795  0.75000000  0.42628205       0.003
   0.32051282  0.75000000  0.42948718       0.003
   0.31730769  0.75000000  0.43269231       0.003
   0.31410256  0.75000000  0.43589744       0.003
[...]
   0.24038462  0.48076923  0.24038462       0.003
   0.25000000  0.50000000  0.25000000       0.003
   0.25961538  0.51923077  0.25961538       0.003
   0.26923077  0.53846154  0.26923077       0.003
   0.27884615  0.55769231  0.27884615       0.003
   0.28846154  0.57692308  0.28846154       0.003
   0.29807692  0.59615385  0.29807692       0.003
   0.30769231  0.61538462  0.30769231       0.003
   0.31730769  0.63461538  0.31730769       0.003
   0.32692308  0.65384615  0.32692308       0.003
   0.33653846  0.67307692  0.33653846       0.003
   0.34615385  0.69230769  0.34615385       0.003
   0.35576923  0.71153846  0.35576923       0.003
   0.36538462  0.73076923  0.36538462       0.003
   0.37500000  0.75000000  0.37500000       0.003

 position of ions in fractional coordinates (direct lattice)
   0.00000000  0.00000000  0.00000000

 position of ions in cartesian coordinates  (Angst):
   0.00000000  0.00000000  0.00000000

 k-point  1 :   0.5000 0.5000 0.5000  plane waves:     138
 k-point  2 :   0.4968 0.5064 0.4968  plane waves:     138
 k-point  3 :   0.4936 0.5128 0.4936  plane waves:     138
 k-point  4 :   0.4904 0.5192 0.4904  plane waves:     138
 k-point  5 :   0.4872 0.5256 0.4872  plane waves:     138
 k-point  6 :   0.4840 0.5321 0.4840  plane waves:     138
 k-point  7 :   0.4808 0.5385 0.4808  plane waves:     138
 k-point  8 :   0.4776 0.5449 0.4776  plane waves:     138
 k-point  9 :   0.4744 0.5513 0.4744  plane waves:     142
 k-point 10 :   0.4712 0.5577 0.4712  plane waves:     142
 k-point 11 :   0.4679 0.5641 0.4679  plane waves:     140
 k-point 12 :   0.4647 0.5705 0.4647  plane waves:     141
 k-point 13 :   0.4615 0.5769 0.4615  plane waves:     141
 k-point 14 :   0.4583 0.5833 0.4583  plane waves:     141
 k-point 15 :   0.4551 0.5897 0.4551  plane waves:     140
 k-point 16 :   0.4519 0.5962 0.4519  plane waves:     140
 k-point 17 :   0.4487 0.6026 0.4487  plane waves:     140
 k-point 18 :   0.4455 0.6090 0.4455  plane waves:     140
 k-point 19 :   0.4423 0.6154 0.4423  plane waves:     140
 k-point 20 :   0.4391 0.6218 0.4391  plane waves:     136
 k-point 21 :   0.4359 0.6282 0.4359  plane waves:     136
 k-point 22 :   0.4327 0.6346 0.4327  plane waves:     138
 k-point 23 :   0.4295 0.6410 0.4295  plane waves:     138
 k-point 24 :   0.4263 0.6474 0.4263  plane waves:     138
 k-point 25 :   0.4231 0.6538 0.4231  plane waves:     138
 k-point 26 :   0.4199 0.6603 0.4199  plane waves:     138
 k-point 27 :   0.4167 0.6667 0.4167  plane waves:     134
 k-point 28 :   0.4135 0.6731 0.4135  plane waves:     136
 k-point 29 :   0.4103 0.6795 0.4103  plane waves:     136
 k-point 30 :   0.4071 0.6859 0.4071  plane waves:     138
 k-point 31 :   0.4038 0.6923 0.4038  plane waves:     138
 k-point 32 :   0.4006 0.6987 0.4006  plane waves:     140
 k-point 33 :   0.3974 0.7051 0.3974  plane waves:     138
 k-point 34 :   0.3942 0.7115 0.3942  plane waves:     138
 k-point 35 :   0.3910 0.7179 0.3910  plane waves:     138
 k-point 36 :   0.3878 0.7244 0.3878  plane waves:     138
 k-point 37 :   0.3846 0.7308 0.3846  plane waves:     138
 k-point 38 :   0.3814 0.7372 0.3814  plane waves:     138
 k-point 39 :   0.3782 0.7436 0.3782  plane waves:     138
 k-point 40 :   0.3750 0.7500 0.3750  plane waves:     138
 k-point 41 :   0.3750 0.7500 0.3750  plane waves:     138
 k-point 42 :   0.3718 0.7500 0.3782  plane waves:     138
 k-point 43 :   0.3686 0.7500 0.3814  plane waves:     138
 k-point 44 :   0.3654 0.7500 0.3846  plane waves:     138
 k-point 45 :   0.3622 0.7500 0.3878  plane waves:     136
 k-point 46 :   0.3590 0.7500 0.3910  plane waves:     136
 k-point 47 :   0.3558 0.7500 0.3942  plane waves:     136
 k-point 48 :   0.3526 0.7500 0.3974  plane waves:     136
 k-point 49 :   0.3494 0.7500 0.4006  plane waves:     136
 k-point 50 :   0.3462 0.7500 0.4038  plane waves:     136
 k-point 51 :   0.3429 0.7500 0.4071  plane waves:     136
 k-point 52 :   0.3397 0.7500 0.4103  plane waves:     136
 k-point 53 :   0.3365 0.7500 0.4135  plane waves:     136
 k-point 54 :   0.3333 0.7500 0.4167  plane waves:     136
 k-point 55 :   0.3301 0.7500 0.4199  plane waves:     136
 k-point 56 :   0.3269 0.7500 0.4231  plane waves:     136
 k-point 57 :   0.3237 0.7500 0.4263  plane waves:     136
 k-point 58 :   0.3205 0.7500 0.4295  plane waves:     136
 k-point 59 :   0.3173 0.7500 0.4327  plane waves:     136
 k-point 60 :   0.3141 0.7500 0.4359  plane waves:     142
[...]
 k-point 85 :   0.2244 0.6731 0.4487  plane waves:     141
 k-point 86 :   0.2179 0.6538 0.4359  plane waves:     140
 k-point 87 :   0.2115 0.6346 0.4231  plane waves:     140
 k-point 88 :   0.2051 0.6154 0.4103  plane waves:     138
 k-point 89 :   0.1987 0.5962 0.3974  plane waves:     138
 k-point 90 :   0.1923 0.5769 0.3846  plane waves:     138
 k-point 91 :   0.1859 0.5577 0.3718  plane waves:     140
 k-point 92 :   0.1795 0.5385 0.3590  plane waves:     140
 k-point 93 :   0.1731 0.5192 0.3462  plane waves:     143
 k-point 94 :   0.1667 0.5000 0.3333  plane waves:     143
 k-point 95 :   0.1603 0.4808 0.3205  plane waves:     143
 k-point 96 :   0.1538 0.4615 0.3077  plane waves:     143
 k-point 97 :   0.1474 0.4423 0.2949  plane waves:     143
 k-point 98 :   0.1410 0.4231 0.2821  plane waves:     144
 k-point 99 :   0.1346 0.4038 0.2692  plane waves:     144
 k-point ** :   0.1282 0.3846 0.2564  plane waves:     144
 k-point ** :   0.1218 0.3654 0.2436  plane waves:     143
 k-point ** :   0.1154 0.3462 0.2308  plane waves:     143
 k-point ** :   0.1090 0.3269 0.2179  plane waves:     143
 k-point ** :   0.1026 0.3077 0.2051  plane waves:     143
 k-point ** :   0.0962 0.2885 0.1923  plane waves:     143
 k-point ** :   0.0897 0.2692 0.1795  plane waves:     143
 k-point ** :   0.0833 0.2500 0.1667  plane waves:     147
 k-point ** :   0.0769 0.2308 0.1538  plane waves:     147
 k-point ** :   0.0705 0.2115 0.1410  plane waves:     141
 k-point ** :   0.0641 0.1923 0.1282  plane waves:     143
 k-point ** :   0.0577 0.1731 0.1154  plane waves:     143
 k-point ** :   0.0513 0.1538 0.1026  plane waves:     145
 k-point ** :   0.0449 0.1346 0.0897  plane waves:     145
 k-point ** :   0.0385 0.1154 0.0769  plane waves:     145
 k-point ** :   0.0321 0.0962 0.0641  plane waves:     145
 k-point ** :   0.0256 0.0769 0.0513  plane waves:     143
 k-point ** :   0.0192 0.0577 0.0385  plane waves:     139
 k-point ** :   0.0128 0.0385 0.0256  plane waves:     137
 k-point ** :   0.0064 0.0192 0.0128  plane waves:     137
 k-point ** :   0.0000 0.0000 0.0000  plane waves:     137
 k-point ** :   0.0000 0.0000 0.0000  plane waves:     137
 k-point ** :   0.0000 0.0128 0.0128  plane waves:     137
 k-point ** :   0.0000 0.0256 0.0256  plane waves:     137
 k-point ** :   0.0000 0.0385 0.0385  plane waves:     137
 k-point ** :   0.0000 0.0513 0.0513  plane waves:     141
 k-point ** :   0.0000 0.0641 0.0641  plane waves:     141
 k-point ** :   0.0000 0.0769 0.0769  plane waves:     145
 k-point ** :   0.0000 0.0897 0.0897  plane waves:     145
 k-point ** :   0.0000 0.1026 0.1026  plane waves:     145
 k-point ** :   0.0000 0.1154 0.1154  plane waves:     145
 k-point ** :   0.0000 0.1282 0.1282  plane waves:     145
 k-point ** :   0.0000 0.1410 0.1410  plane waves:     141
 k-point ** :   0.0000 0.1538 0.1538  plane waves:     141
 k-point ** :   0.0000 0.1667 0.1667  plane waves:     141
 k-point ** :   0.0000 0.1795 0.1795  plane waves:     141
 k-point ** :   0.0000 0.1923 0.1923  plane waves:     141
 k-point ** :   0.0000 0.2051 0.2051  plane waves:     141
 k-point ** :   0.0000 0.2179 0.2179  plane waves:     141
 k-point ** :   0.0000 0.2308 0.2308  plane waves:     141
 k-point ** :   0.0000 0.2436 0.2436  plane waves:     141
 k-point ** :   0.0000 0.2564 0.2564  plane waves:     133
 k-point ** :   0.0000 0.2692 0.2692  plane waves:     141
 k-point ** :   0.0000 0.2821 0.2821  plane waves:     141
 k-point ** :   0.0000 0.2949 0.2949  plane waves:     141
 k-point ** :   0.0000 0.3077 0.3077  plane waves:     141
 k-point ** :   0.0000 0.3205 0.3205  plane waves:     141
 k-point ** :   0.0000 0.3333 0.3333  plane waves:     141
 k-point ** :   0.0000 0.3462 0.3462  plane waves:     141
 k-point ** :   0.0000 0.3590 0.3590  plane waves:     137
 k-point ** :   0.0000 0.3718 0.3718  plane waves:     137
 k-point ** :   0.0000 0.3846 0.3846  plane waves:     137
 k-point ** :   0.0000 0.3974 0.3974  plane waves:     137
 k-point ** :   0.0000 0.4103 0.4103  plane waves:     141
 k-point ** :   0.0000 0.4231 0.4231  plane waves:     141
 k-point ** :   0.0000 0.4359 0.4359  plane waves:     141
 k-point ** :   0.0000 0.4487 0.4487  plane waves:     142
 k-point ** :   0.0000 0.4615 0.4615  plane waves:     142
 k-point ** :   0.0000 0.4744 0.4744  plane waves:     142
 k-point ** :   0.0000 0.4872 0.4872  plane waves:     150
[...]
 k-point ** :   0.2404 0.4808 0.2404  plane waves:     138
 k-point ** :   0.2500 0.5000 0.2500  plane waves:     138
 k-point ** :   0.2596 0.5192 0.2596  plane waves:     138
 k-point ** :   0.2692 0.5385 0.2692  plane waves:     138
 k-point ** :   0.2788 0.5577 0.2788  plane waves:     136
 k-point ** :   0.2885 0.5769 0.2885  plane waves:     136
 k-point ** :   0.2981 0.5962 0.2981  plane waves:     140
 k-point ** :   0.3077 0.6154 0.3077  plane waves:     140
 k-point ** :   0.3173 0.6346 0.3173  plane waves:     140
 k-point ** :   0.3269 0.6538 0.3269  plane waves:     140
 k-point ** :   0.3365 0.6731 0.3365  plane waves:     138
 k-point ** :   0.3462 0.6923 0.3462  plane waves:     138
 k-point ** :   0.3558 0.7115 0.3558  plane waves:     138
 k-point ** :   0.3654 0.7308 0.3654  plane waves:     138
 k-point ** :   0.3750 0.7500 0.3750  plane waves:     138

 maximum and minimum number of plane-waves per node :        77       65

 maximum number of plane-waves:       150
 maximum index in each direction:
   IXMAX=    3   IYMAX=    3   IZMAX=    3
   IXMIN=   -4   IYMIN=   -4   IZMIN=   -4

 WARNING: aliasing errors must be expected set NGX to  16 to avoid them
 WARNING: aliasing errors must be expected set NGY to  16 to avoid them
 WARNING: aliasing errors must be expected set NGZ to  16 to avoid them
 aliasing errors are usually negligible using standard VASP settings
 and one can safely disregard these warnings

 parallel 3D FFT for wavefunctions:
    minimum data exchange during FFTs selected (reduces bandwidth)
 parallel 3D FFT for charge:
    minimum data exchange during FFTs selected (reduces bandwidth)

 initial charge density was supplied:
 number of electron       3.0000000 magnetization
 keeping initial charge density in first step

 Maximum index for augmentation-charges         2019 (set IRDMAX)

 First call to EWALD:  gamma=   0.695
 Maximum number of real-space cells 3x 3x 3
 Maximum number of reciprocal cells 3x 3x 3

 FEWALD executed in parallel

----------------------------------------- Iteration    1(   1)  ---------------------------------------

 eigenvalue-minimisations  :  4040
 total energy-change (2. order) :-0.2658990E+01  (-0.5321773E+02)
 number of electron       3.0000000 magnetization
 augmentation part        3.0000000 magnetization

 Free energy of the ion-electron system (eV)
  alpha Z        PSCENC =        -0.15332662
  Ewald energy   TEWEN  =       -73.35670894
  -1/2 Hartree   DENC   =        -0.10460796
  -exchange  EXHF       =         0.00000000
  -V(xc)+E(xc)   XCENC  =       -26.29585808
  PAW double counting   =        35.89616071       -3.86303028
  entropy T*S    EENTRO =        -0.00035203
  eigenvalues    EBANDS =        11.53072648
  atomic energy  EATOM  =        53.68800704
  free energy    TOTEN  =        -2.65898968 eV

  energy without entropy =       -2.65863765  energy(sigma->0) =       -2.65887233

[...]

 eigenvalue-minimisations  :  4565
 total energy-change (2. order) :-0.8142663E-08  (-0.7996781E-08)
 number of electron       3.0000000 magnetization
 augmentation part        3.0000000 magnetization

[...]

----------------------------------------- Iteration    1(   6)  ---------------------------------------

 eigenvalue-minimisations  :  4340
 total energy-change (2. order) : 0.3694112E-09  (-0.4101918E-10)
 number of electron       3.0000000 magnetization
 augmentation part        3.0000000 magnetization

 Free energy of the ion-electron system (eV)
  alpha Z        PSCENC =        -0.15332662
  Ewald energy   TEWEN  =       -73.35670894
  -1/2 Hartree   DENC   =        -0.10460796
  -exchange  EXHF       =         0.00000000
  -V(xc)+E(xc)   XCENC  =       -26.29585808
  PAW double counting   =        35.89616071       -3.86303028
  entropy T*S    EENTRO =        -0.00131060
  eigenvalues    EBANDS =        10.78988067
  atomic energy  EATOM  =        53.68800704
  free energy    TOTEN  =        -3.40079405 eV

  energy without entropy =       -3.39948346  energy(sigma->0) =       -3.40035719

 average (electrostatic) potential at core
  the test charge radii are     1.0406
  (the norm of the test charge is              1.0000)
       1 -72.2957

 E-fermi :   7.1271     XC(G=0): -10.1857     alpha+bet :-14.7760

 k-point   1 :       0.5000    0.5000    0.5000
  band No.  band energies     occupation
      1       3.3507      2.00000
      2       3.5263      2.00000
      3      19.1912      0.00000
      4      19.1913      0.00000
      5      19.3861      0.00000

[...]

 k-point 320 :       0.3750    0.7500    0.3750
  band No.  band energies     occupation
      1       6.0249      2.00000
      2       6.5666      2.00054
      3       7.4959     -0.02558
      4      14.4176      0.00000
      5      16.0979      0.00000

 soft charge-density along one line, spin component           1
         0         1         2         3         4         5         6         7         8         9
 total charge-density along one line

------------------------ aborting loop because EDIFF is reached ----------------------------------------

  FORCE on cell =-STRESS in cart. coord.  units (eV):
  Direction    XX          YY          ZZ          XY          YZ          ZX
  Alpha Z    -0.15333    -0.15333    -0.15333
  Ewald     -24.45224   -24.45224   -24.45224     0.00000     0.00000     0.00000
  Hartree     0.04379     0.04379     0.04379     0.00000     0.00000     0.00000
  E(xc)      -8.60671    -8.60671    -8.60671     0.00002     0.00002     0.00002
  Local       0.34707     0.34707     0.34707     0.00000     0.00000     0.00000
  n-local    17.87532    19.25090    17.41940    -0.30445    -0.30822    -0.22138
  augment    -0.86099    -0.86099    -0.86099     0.00000     0.00000     0.00000
  Kinetic    21.86225    13.43364    10.42406     4.02374     4.62191     8.89775
  Fock        0.00000     0.00000     0.00000     0.00000     0.00000     0.00000
  Total      -0.26054    -0.26054    -0.26054     0.00000     0.00000     0.00000
  in kB     -25.13543   -25.13543   -25.13543     0.00000     0.00000     0.00000

 VOLUME and BASIS-vectors are now :
  energy-cutoff  :      240.44
  volume of cell :       16.61
      direct lattice vectors                 reciprocal lattice vectors
     0.000000000  2.025000000  2.025000000    -0.246913580  0.246913580  0.246913580
     2.025000000  0.000000000  2.025000000     0.246913580 -0.246913580  0.246913580
     2.025000000  2.025000000  0.000000000     0.246913580  0.246913580 -0.246913580

  length of vectors
     2.863782464  2.863782464  2.863782464     0.427666866  0.427666866  0.427666866

 FORCES acting on ions
    electron-ion (+dipol)            ewald-force                    non-local-force                 convergence-correction
   0.337E-15 0.168E-15 -.681E-15   -.758E-16 -.122E-15 -.249E-16   0.207E-24 0.155E-24 0.271E-24   0.173E-18 0.145E-17 -.425E-18
   0.337E-15 0.168E-15 -.681E-15   -.758E-16 -.122E-15 -.249E-16   0.207E-24 0.155E-24 0.271E-24   0.173E-18 0.145E-17 -.425E-18

 POSITION                                       TOTAL-FORCE (eV/Angst)
      0.00000      0.00000      0.00000         0.000000      0.000000      0.000000
    total drift:                                0.000000      0.000000      0.000000

  FREE ENERGIE OF THE ION-ELECTRON SYSTEM (eV)
  free  energy   TOTEN  =        -3.40079405 eV

  energy  without entropy=       -3.39948346  energy(sigma->0) =       -3.40035719

volume of typ            1:    69.5 %

 total charge

# of ion     s       p       d       tot
  1        0.730   0.893   0.177   1.800