 vasp.5.3.2 13Sep12 (build Jun 30 2016 14:08:18) complex

 executed on             LinuxIFC date 2017.11.09  16:16:57

 INCAR:
 POTCAR:    PAW Al
 POTCAR:    PAW Al
   VRHFIN =Al: s2p1

   TITEL  = PAW Al
   POMASS =   26.982; ZVAL   =    3.000    mass and valenz
   ENMAX  =  240.437; ENMIN  =  180.327 eV
   QCUT   =   -4.204; QGAM   =    8.408    optimization parameters

   Description
     l     E      TYP  RCUT    TYP  RCUT
     0   .000     23  1.900
     0   .000     23  1.900
     1   .000     23  1.900
     1  1.000     23  1.900
     2   .000      7  1.900

  PAW Al                                :

 POSCAR: Al
  positions in direct lattice
 exchange correlation table for  LEXCH =        7
   RHO(1)=    0.500       N(1)  =     2000
   RHO(2)=  100.500       N(2)  =     4000

 ion  position               nearest neighbor table
   1  0.000  0.000  0.000-

  LATTYP: Found a face centered cubic cell.
 ALAT       =     4.0500000000

  Lattice vectors:

 A1 = (   0.0000000000,   2.0250000000,   2.0250000000)
 A2 = (   2.0250000000,   0.0000000000,   2.0250000000)
 A3 = (   2.0250000000,   2.0250000000,   0.0000000000)

Analysis of symmetry for initial positions (statically):
 Subroutine PRICEL returns:
 Original cell was already a primitive cell.

 Routine SETGRP: Setting up the symmetry group for a
 face centered cubic supercell.

 Subroutine GETGRP returns: Found 48 space group operations
 (whereof 48 operations were pure point group operations)
 out of a pool of 48 trial point group operations.

The static configuration has the point symmetry O_h .

Analysis of symmetry for dynamics (positions and initial velocities):
 Subroutine PRICEL returns:
 Original cell was already a primitive cell.

 Routine SETGRP: Setting up the symmetry group for a
 face centered cubic supercell.

 Subroutine GETGRP returns: Found 48 space group operations
 (whereof 48 operations were pure point group operations)
 out of a pool of 48 trial point group operations.

The dynamic configuration has the point symmetry O_h .

 KPOINTS: 10x10x10

Automatic generation of k-mesh.
Space group operators:
 irot       det(A)        alpha          n_x          n_y          n_z        tau_x        tau_y        tau_z
    1     1.000000     0.000001     1.000000     0.000000     0.000000     0.000000     0.000000     0.000000
    2    -1.000000     0.000001     1.000000     0.000000     0.000000     0.000000     0.000000     0.000000
    3     1.000000   120.000000    -0.577350    -0.577350    -0.577350     0.000000     0.000000     0.000000
    4    -1.000000   120.000000    -0.577350    -0.577350    -0.577350     0.000000     0.000000     0.000000
    5     1.000000   120.000000     0.577350     0.577350     0.577350     0.000000     0.000000     0.000000
    6    -1.000000   120.000000     0.577350     0.577350     0.577350     0.000000     0.000000     0.000000
    7     1.000000    90.000000     0.000000     0.000000    -1.000000     0.000000     0.000000     0.000000
    8    -1.000000    90.000000     0.000000     0.000000    -1.000000     0.000000     0.000000     0.000000
    9     1.000000   180.000000     0.000000     0.707107     0.707107     0.000000     0.000000     0.000000
   10    -1.000000   180.000000     0.000000     0.707107     0.707107     0.000000     0.000000     0.000000
   11     1.000000    90.000000     0.000000     1.000000     0.000000     0.000000     0.000000     0.000000
   12    -1.000000    90.000000     0.000000     1.000000     0.000000     0.000000     0.000000     0.000000
   13     1.000000   180.000000     0.000000     0.000000     1.000000     0.000000     0.000000     0.000000
   14    -1.000000   180.000000     0.000000     0.000000     1.000000     0.000000     0.000000     0.000000
   15     1.000000   120.000000    -0.577350     0.577350     0.577350     0.000000     0.000000     0.000000
   16    -1.000000   120.000000    -0.577350     0.577350     0.577350     0.000000     0.000000     0.000000
   17     1.000000   120.000000    -0.577350     0.577350    -0.577350     0.000000     0.000000     0.000000
   18    -1.000000   120.000000    -0.577350     0.577350    -0.577350     0.000000     0.000000     0.000000
   19     1.000000    90.000000     0.000000     0.000000     1.000000     0.000000     0.000000     0.000000
   20    -1.000000    90.000000     0.000000     0.000000     1.000000     0.000000     0.000000     0.000000
   21     1.000000    90.000000    -1.000000     0.000000     0.000000     0.000000     0.000000     0.000000
   22    -1.000000    90.000000    -1.000000     0.000000     0.000000     0.000000     0.000000     0.000000
   23     1.000000   180.000000     0.707107     0.000000     0.707107     0.000000     0.000000     0.000000
   24    -1.000000   180.000000     0.707107     0.000000     0.707107     0.000000     0.000000     0.000000
   25     1.000000   120.000000     0.577350    -0.577350     0.577350     0.000000     0.000000     0.000000
   26    -1.000000   120.000000     0.577350    -0.577350     0.577350     0.000000     0.000000     0.000000
   27     1.000000   120.000000    -0.577350    -0.577350     0.577350     0.000000     0.000000     0.000000
   28    -1.000000   120.000000    -0.577350    -0.577350     0.577350     0.000000     0.000000     0.000000
   29     1.000000   180.000000     1.000000     0.000000     0.000000     0.000000     0.000000     0.000000
   30    -1.000000   180.000000     1.000000     0.000000     0.000000     0.000000     0.000000     0.000000
   31     1.000000    90.000000     0.000000    -1.000000     0.000000     0.000000     0.000000     0.000000
   32    -1.000000    90.000000     0.000000    -1.000000     0.000000     0.000000     0.000000     0.000000
   33     1.000000   180.000000     0.707107     0.707107     0.000000     0.000000     0.000000     0.000000
   34    -1.000000   180.000000     0.707107     0.707107     0.000000     0.000000     0.000000     0.000000
   35     1.000000    90.000000     1.000000     0.000000     0.000000     0.000000     0.000000     0.000000
   36    -1.000000    90.000000     1.000000     0.000000     0.000000     0.000000     0.000000     0.000000
   37     1.000000   120.000000     0.577350    -0.577350    -0.577350     0.000000     0.000000     0.000000
   38    -1.000000   120.000000     0.577350    -0.577350    -0.577350     0.000000     0.000000     0.000000
   39     1.000000   180.000000     0.000000     1.000000     0.000000     0.000000     0.000000     0.000000
   40    -1.000000   180.000000     0.000000     1.000000     0.000000     0.000000     0.000000     0.000000
   41     1.000000   120.000000     0.577350     0.577350    -0.577350     0.000000     0.000000     0.000000
   42    -1.000000   120.000000     0.577350     0.577350    -0.577350     0.000000     0.000000     0.000000
   43     1.000000   180.000000     0.000000    -0.707107     0.707107     0.000000     0.000000     0.000000
   44    -1.000000   180.000000     0.000000    -0.707107     0.707107     0.000000     0.000000     0.000000
   45     1.000000   180.000000     0.707107    -0.707107     0.000000     0.000000     0.000000     0.000000
   46    -1.000000   180.000000     0.707107    -0.707107     0.000000     0.000000     0.000000     0.000000
   47     1.000000   180.000000     0.707107     0.000000    -0.707107     0.000000     0.000000     0.000000
   48    -1.000000   180.000000     0.707107     0.000000    -0.707107     0.000000     0.000000     0.000000

 Subroutine IBZKPT returns following result:

 Found    110 irreducible k-points:

 Following reciprocal coordinates:
            Coordinates               Weight
  0.050000  0.050000  0.050000     96.000000
  0.150000  0.050000  0.050000    288.000000
  0.250000  0.050000  0.050000    288.000000
  0.350000  0.050000  0.050000    288.000000
  0.450000  0.050000  0.050000    288.000000
 -0.450000  0.050000  0.050000    288.000000
 -0.350000  0.050000  0.050000    288.000000
 -0.250000  0.050000  0.050000    288.000000
 -0.150000  0.050000  0.050000    288.000000
 -0.050000  0.050000  0.050000    288.000000
  0.150000  0.150000  0.050000    288.000000
  0.250000  0.150000  0.050000    576.000000
  0.350000  0.150000  0.050000    576.000000
  0.450000  0.150000  0.050000    576.000000
 -0.450000  0.150000  0.050000    576.000000
 -0.350000  0.150000  0.050000    576.000000
 -0.250000  0.150000  0.050000    576.000000
 -0.150000  0.150000  0.050000    576.000000
 -0.050000  0.150000  0.050000    576.000000
  0.250000  0.250000  0.050000    288.000000
  0.350000  0.250000  0.050000    576.000000
  0.450000  0.250000  0.050000    576.000000
 -0.450000  0.250000  0.050000    576.000000
 -0.350000  0.250000  0.050000    576.000000
 -0.250000  0.250000  0.050000    576.000000
 -0.150000  0.250000  0.050000    576.000000
 -0.050000  0.250000  0.050000    576.000000
  0.350000  0.350000  0.050000    288.000000
  0.450000  0.350000  0.050000    576.000000
 -0.450000  0.350000  0.050000    576.000000
 -0.350000  0.350000  0.050000    576.000000
 -0.250000  0.350000  0.050000    576.000000
 -0.150000  0.350000  0.050000    576.000000
 -0.050000  0.350000  0.050000    576.000000
  0.450000  0.450000  0.050000    288.000000
 -0.450000  0.450000  0.050000    576.000000
 -0.350000  0.450000  0.050000    576.000000
 -0.250000  0.450000  0.050000    576.000000
 -0.150000  0.450000  0.050000    576.000000
 -0.050000  0.450000  0.050000    576.000000
 -0.450000 -0.450000  0.050000    288.000000
 -0.350000 -0.450000  0.050000    576.000000
 -0.250000 -0.450000  0.050000    576.000000
 -0.150000 -0.450000  0.050000    576.000000
 -0.350000 -0.350000  0.050000    288.000000
 -0.250000 -0.350000  0.050000    576.000000
 -0.150000 -0.350000  0.050000    576.000000
 -0.250000 -0.250000  0.050000    288.000000
 -0.150000 -0.250000  0.050000    576.000000
 -0.150000 -0.150000  0.050000    288.000000
  0.150000  0.150000  0.150000     96.000000
  0.250000  0.150000  0.150000    288.000000
  0.350000  0.150000  0.150000    288.000000
  0.450000  0.150000  0.150000    288.000000
 -0.450000  0.150000  0.150000    288.000000
 -0.350000  0.150000  0.150000    288.000000
 -0.250000  0.150000  0.150000    288.000000
 -0.150000  0.150000  0.150000    288.000000
  0.250000  0.250000  0.150000    288.000000
  0.350000  0.250000  0.150000    576.000000
[...]
 -0.350000  0.450000  0.250000    576.000000
 -0.250000  0.450000  0.250000    576.000000
 -0.450000 -0.450000  0.250000    288.000000
 -0.350000 -0.450000  0.250000    576.000000
 -0.350000 -0.350000  0.250000    288.000000
  0.350000  0.350000  0.350000     96.000000
  0.450000  0.350000  0.350000    288.000000
 -0.450000  0.350000  0.350000    288.000000
 -0.350000  0.350000  0.350000    288.000000
  0.450000  0.450000  0.350000    288.000000
 -0.450000  0.450000  0.350000    576.000000
 -0.350000  0.450000  0.350000    576.000000
 -0.450000 -0.450000  0.350000    288.000000
  0.450000  0.450000  0.450000     96.000000
 -0.450000  0.450000  0.450000    288.000000

 Following cartesian coordinates:
            Coordinates               Weight
  0.050000  0.050000  0.050000     96.000000
[...]
   1.15000000 -0.45000000 -0.25000000       0.012
   0.35000000  0.35000000 -1.25000000       0.006
   0.45000000  0.45000000  0.45000000       0.002
   1.35000000 -0.45000000 -0.45000000       0.006

 k-points in reciprocal lattice and weights: 10x10x10
   0.05000000  0.05000000  0.05000000       0.002
   0.15000000  0.05000000  0.05000000       0.006
   0.25000000  0.05000000  0.05000000       0.006
   0.35000000  0.05000000  0.05000000       0.006
   0.45000000  0.05000000  0.05000000       0.006
  -0.45000000  0.05000000  0.05000000       0.006
  -0.35000000  0.05000000  0.05000000       0.006
  -0.25000000  0.05000000  0.05000000       0.006
  -0.15000000  0.05000000  0.05000000       0.006
  -0.05000000  0.05000000  0.05000000       0.006
   0.15000000  0.15000000  0.05000000       0.006
   0.25000000  0.15000000  0.05000000       0.012
   0.35000000  0.15000000  0.05000000       0.012
   0.45000000  0.15000000  0.05000000       0.012
  -0.45000000  0.15000000  0.05000000       0.012
  -0.35000000  0.15000000  0.05000000       0.012
  -0.25000000  0.15000000  0.05000000       0.012
  -0.15000000  0.15000000  0.05000000       0.012
  -0.05000000  0.15000000  0.05000000       0.012
   0.25000000  0.25000000  0.05000000       0.006
   0.35000000  0.25000000  0.05000000       0.012
   0.45000000  0.25000000  0.05000000       0.012
  -0.45000000  0.25000000  0.05000000       0.012
  -0.35000000  0.25000000  0.05000000       0.012
  -0.25000000  0.25000000  0.05000000       0.012
  -0.15000000  0.25000000  0.05000000       0.012
  -0.05000000  0.25000000  0.05000000       0.012
   0.35000000  0.35000000  0.05000000       0.006
   0.45000000  0.35000000  0.05000000       0.012
  -0.45000000  0.35000000  0.05000000       0.012
  -0.35000000  0.35000000  0.05000000       0.012
  -0.25000000  0.35000000  0.05000000       0.012
  -0.15000000  0.35000000  0.05000000       0.012
  -0.05000000  0.35000000  0.05000000       0.012
   0.45000000  0.45000000  0.05000000       0.006
  -0.45000000  0.45000000  0.05000000       0.012
  -0.35000000  0.45000000  0.05000000       0.012
  -0.25000000  0.45000000  0.05000000       0.012
  -0.15000000  0.45000000  0.05000000       0.012
  -0.05000000  0.45000000  0.05000000       0.012
  -0.45000000 -0.45000000  0.05000000       0.006
  -0.35000000 -0.45000000  0.05000000       0.012
  -0.25000000 -0.45000000  0.05000000       0.012
  -0.15000000 -0.45000000  0.05000000       0.012
  -0.35000000 -0.35000000  0.05000000       0.006
  -0.25000000 -0.35000000  0.05000000       0.012
  -0.15000000 -0.35000000  0.05000000       0.012
  -0.25000000 -0.25000000  0.05000000       0.006
  -0.15000000 -0.25000000  0.05000000       0.012
  -0.15000000 -0.15000000  0.05000000       0.006
   0.15000000  0.15000000  0.15000000       0.002
   0.25000000  0.15000000  0.15000000       0.006
   0.35000000  0.15000000  0.15000000       0.006
   0.45000000  0.15000000  0.15000000       0.006
  -0.45000000  0.15000000  0.15000000       0.006
  -0.35000000  0.15000000  0.15000000       0.006
  -0.25000000  0.15000000  0.15000000       0.006
  -0.15000000  0.15000000  0.15000000       0.006
   0.25000000  0.25000000  0.15000000       0.006
   0.35000000  0.25000000  0.15000000       0.012
[...]
  -0.35000000  0.45000000  0.25000000       0.012
  -0.25000000  0.45000000  0.25000000       0.012
  -0.45000000 -0.45000000  0.25000000       0.006
  -0.35000000 -0.45000000  0.25000000       0.012
  -0.35000000 -0.35000000  0.25000000       0.006
   0.35000000  0.35000000  0.35000000       0.002
   0.45000000  0.35000000  0.35000000       0.006
  -0.45000000  0.35000000  0.35000000       0.006
  -0.35000000  0.35000000  0.35000000       0.006
   0.45000000  0.45000000  0.35000000       0.006
  -0.45000000  0.45000000  0.35000000       0.012
  -0.35000000  0.45000000  0.35000000       0.012
  -0.45000000 -0.45000000  0.35000000       0.006
   0.45000000  0.45000000  0.45000000       0.002
  -0.45000000  0.45000000  0.45000000       0.006

 position of ions in fractional coordinates (direct lattice)
   0.00000000  0.00000000  0.00000000

 position of ions in cartesian coordinates  (Angst):
   0.00000000  0.00000000  0.00000000

 k-point  1 :   0.0500 0.0500 0.0500  plane waves:     138
 k-point  2 :   0.1500 0.0500 0.0500  plane waves:     148
 k-point  3 :   0.2500 0.0500 0.0500  plane waves:     145
 k-point  4 :   0.3500 0.0500 0.0500  plane waves:     144
 k-point  5 :   0.4500 0.0500 0.0500  plane waves:     147
 k-point  6 :  -0.4500 0.0500 0.0500  plane waves:     141
 k-point  7 :  -0.3500 0.0500 0.0500  plane waves:     146
 k-point  8 :  -0.2500 0.0500 0.0500  plane waves:     145
 k-point  9 :  -0.1500 0.0500 0.0500  plane waves:     147
 k-point 10 :  -0.0500 0.0500 0.0500  plane waves:     146
 k-point 11 :   0.1500 0.1500 0.0500  plane waves:     148
 k-point 12 :   0.2500 0.1500 0.0500  plane waves:     141
 k-point 13 :   0.3500 0.1500 0.0500  plane waves:     143
 k-point 14 :   0.4500 0.1500 0.0500  plane waves:     144
 k-point 15 :  -0.4500 0.1500 0.0500  plane waves:     138
 k-point 16 :  -0.3500 0.1500 0.0500  plane waves:     142
 k-point 17 :  -0.2500 0.1500 0.0500  plane waves:     145
 k-point 18 :  -0.1500 0.1500 0.0500  plane waves:     143
 k-point 19 :  -0.0500 0.1500 0.0500  plane waves:     146
 k-point 20 :   0.2500 0.2500 0.0500  plane waves:     143
 k-point 21 :   0.3500 0.2500 0.0500  plane waves:     140
 k-point 22 :   0.4500 0.2500 0.0500  plane waves:     141
 k-point 23 :  -0.4500 0.2500 0.0500  plane waves:     140
 k-point 24 :  -0.3500 0.2500 0.0500  plane waves:     137
 k-point 25 :  -0.2500 0.2500 0.0500  plane waves:     140
 k-point 26 :  -0.1500 0.2500 0.0500  plane waves:     141
 k-point 27 :  -0.0500 0.2500 0.0500  plane waves:     145
 k-point 28 :   0.3500 0.3500 0.0500  plane waves:     137
 k-point 29 :   0.4500 0.3500 0.0500  plane waves:     137
 k-point 30 :  -0.4500 0.3500 0.0500  plane waves:     138
 k-point 31 :  -0.3500 0.3500 0.0500  plane waves:     139
 k-point 32 :  -0.2500 0.3500 0.0500  plane waves:     138
 k-point 33 :  -0.1500 0.3500 0.0500  plane waves:     140
 k-point 34 :  -0.0500 0.3500 0.0500  plane waves:     144
 k-point 35 :   0.4500 0.4500 0.0500  plane waves:     135
 k-point 36 :  -0.4500 0.4500 0.0500  plane waves:     137
 k-point 37 :  -0.3500 0.4500 0.0500  plane waves:     137
 k-point 38 :  -0.2500 0.4500 0.0500  plane waves:     135
 k-point 39 :  -0.1500 0.4500 0.0500  plane waves:     139
 k-point 40 :  -0.0500 0.4500 0.0500  plane waves:     142
 k-point 41 :  -0.4500-0.4500 0.0500  plane waves:     142
 k-point 42 :  -0.3500-0.4500 0.0500  plane waves:     135
 k-point 43 :  -0.2500-0.4500 0.0500  plane waves:     139
 k-point 44 :  -0.1500-0.4500 0.0500  plane waves:     142
 k-point 45 :  -0.3500-0.3500 0.0500  plane waves:     135
 k-point 46 :  -0.2500-0.3500 0.0500  plane waves:     140
 k-point 47 :  -0.1500-0.3500 0.0500  plane waves:     141
 k-point 48 :  -0.2500-0.2500 0.0500  plane waves:     139
 k-point 49 :  -0.1500-0.2500 0.0500  plane waves:     141
 k-point 50 :  -0.1500-0.1500 0.0500  plane waves:     145
 k-point 51 :   0.1500 0.1500 0.1500  plane waves:     150
 k-point 52 :   0.2500 0.1500 0.1500  plane waves:     143
 k-point 53 :   0.3500 0.1500 0.1500  plane waves:     142
 k-point 54 :   0.4500 0.1500 0.1500  plane waves:     143
 k-point 55 :  -0.4500 0.1500 0.1500  plane waves:     140
 k-point 56 :  -0.3500 0.1500 0.1500  plane waves:     140
 k-point 57 :  -0.2500 0.1500 0.1500  plane waves:     144
 k-point 58 :  -0.1500 0.1500 0.1500  plane waves:     140
 k-point 59 :   0.2500 0.2500 0.1500  plane waves:     145
 k-point 60 :   0.3500 0.2500 0.1500  plane waves:     141
[...]
 k-point 85 :   0.4500 0.2500 0.2500  plane waves:     142
 k-point 86 :  -0.4500 0.2500 0.2500  plane waves:     137
 k-point 87 :  -0.3500 0.2500 0.2500  plane waves:     138
 k-point 88 :  -0.2500 0.2500 0.2500  plane waves:     143
 k-point 89 :   0.3500 0.3500 0.2500  plane waves:     143
 k-point 90 :   0.4500 0.3500 0.2500  plane waves:     141
 k-point 91 :  -0.4500 0.3500 0.2500  plane waves:     140
 k-point 92 :  -0.3500 0.3500 0.2500  plane waves:     139
 k-point 93 :  -0.2500 0.3500 0.2500  plane waves:     138
 k-point 94 :   0.4500 0.4500 0.2500  plane waves:     142
 k-point 95 :  -0.4500 0.4500 0.2500  plane waves:     141
 k-point 96 :  -0.3500 0.4500 0.2500  plane waves:     139
 k-point 97 :  -0.2500 0.4500 0.2500  plane waves:     144
 k-point 98 :  -0.4500-0.4500 0.2500  plane waves:     135
 k-point 99 :  -0.3500-0.4500 0.2500  plane waves:     138
 k-point ** :  -0.3500-0.3500 0.2500  plane waves:     136
 k-point ** :   0.3500 0.3500 0.3500  plane waves:     144
 k-point ** :   0.4500 0.3500 0.3500  plane waves:     144
 k-point ** :  -0.4500 0.3500 0.3500  plane waves:     138
 k-point ** :  -0.3500 0.3500 0.3500  plane waves:     138
 k-point ** :   0.4500 0.4500 0.3500  plane waves:     143
 k-point ** :  -0.4500 0.4500 0.3500  plane waves:     140
 k-point ** :  -0.3500 0.4500 0.3500  plane waves:     140
 k-point ** :  -0.4500-0.4500 0.3500  plane waves:     138
 k-point ** :   0.4500 0.4500 0.4500  plane waves:     147
 k-point ** :  -0.4500 0.4500 0.4500  plane waves:     138

 maximum and minimum number of plane-waves per node :       150      135

 maximum number of plane-waves:       150
 maximum index in each direction:
   IXMAX=    4   IYMAX=    4   IZMAX=    3
   IXMIN=   -4   IYMIN=   -4   IZMIN=   -4

 WARNING: aliasing errors must be expected set NGX to  18 to avoid them
 WARNING: aliasing errors must be expected set NGY to  18 to avoid them
 WARNING: aliasing errors must be expected set NGZ to  16 to avoid them
 aliasing errors are usually negligible using standard VASP settings
 and one can safely disregard these warnings

 serial   3D FFT for wavefunctions
 parallel 3D FFT for charge:
    minimum data exchange during FFTs selected (reduces bandwidth)

 Broyden mixing: mesh for mixing (old mesh)
   NGX =  7   NGY =  7   NGZ =  7
  (NGX  = 24   NGY  = 24   NGZ  = 24)
  gives a total of    343 points

 initial charge density was supplied:
 charge density of overlapping atoms calculated
 number of electron       3.0000000 magnetization
 keeping initial charge density in first step

 Maximum index for augmentation-charges         2019 (set IRDMAX)

 First call to EWALD:  gamma=   0.695
 Maximum number of real-space cells 3x 3x 3
 Maximum number of reciprocal cells 3x 3x 3

 FEWALD executed in parallel

----------------------------------------- Iteration    1(   1)  ---------------------------------------

 eigenvalue-minimisations  :  1770
 total energy-change (2. order) :-0.3210996E+01  (-0.5676188E+02)
 number of electron       3.0000000 magnetization
 augmentation part        3.0000000 magnetization

 Free energy of the ion-electron system (eV)
  alpha Z        PSCENC =        -0.15332662
  Ewald energy   TEWEN  =       -73.35670894
  -1/2 Hartree   DENC   =        -0.10550201
  -exchange  EXHF       =         0.00000000
  -V(xc)+E(xc)   XCENC  =       -26.40556105
  PAW double counting   =        35.65910006       -3.60582523
  entropy T*S    EENTRO =        -0.00043136
  eigenvalues    EBANDS =        11.06925260
  atomic energy  EATOM  =        53.68800704
  free energy    TOTEN  =        -3.21099550 eV

  energy without entropy =       -3.21056414  energy(sigma->0) =       -3.21085171

[...]

 Broyden mixing:
  rms(total) = 0.90496E-01    rms(broyden)= 0.90490E-01
  rms(prec ) = 0.33941E+00
  weight for this iteration     100.00

[...]

 eigenvalue-minimisations  :  1434
 total energy-change (2. order) : 0.1167024E-01  (-0.1601184E-03)
 number of electron       3.0000000 magnetization
 augmentation part       -0.0381244 magnetization

[...]

 eigenvalues of (default mixing * dielectric matrix)
  average eigenvalue GAMMA=   2.6420
  2.6420

[...]

 eigenvalue-minimisations  :  1236
 total energy-change (2. order) :-0.1470706E-05  (-0.1884370E-07)
 number of electron       3.0000000 magnetization
 augmentation part       -0.0391948 magnetization

 Broyden mixing:
  rms(total) = 0.99366E-04    rms(broyden)= 0.99338E-04
  rms(prec ) = 0.18520E-03
  weight for this iteration     100.00

 eigenvalues of (default mixing * dielectric matrix)
  average eigenvalue GAMMA=   2.1240
  1.0071  2.6355  2.6355  2.2179

[...]

----------------------------------------- Iteration    1(  10)  ---------------------------------------

 eigenvalue-minimisations  :   828
 total energy-change (2. order) : 0.2734169E-06  (-0.7520041E-09)
 number of electron       3.0000000 magnetization
 augmentation part       -0.0391948 magnetization

 Free energy of the ion-electron system (eV)
  alpha Z        PSCENC =        -0.15332662
  Ewald energy   TEWEN  =       -73.35670894
  -1/2 Hartree   DENC   =        -0.10459165
  -exchange  EXHF       =         0.00000000
  -V(xc)+E(xc)   XCENC  =       -26.29586773
  PAW double counting   =        35.89647864       -3.86335620
  entropy T*S    EENTRO =        -0.00025324
  eigenvalues    EBANDS =        10.49996202
  atomic energy  EATOM  =        53.68800704
  free energy    TOTEN  =        -3.68965669 eV

  energy without entropy =       -3.68940345  energy(sigma->0) =       -3.68957228

 average (electrostatic) potential at core
  the test charge radii are     1.0406
  (the norm of the test charge is              1.0000)
       1 -72.2956

 E-fermi :   7.9733     XC(G=0): -10.1857     alpha+bet :-14.7760

 k-point   1 :       0.0500    0.0500    0.0500
  band No.  band energies     occupation
      1      -3.1119      2.00000
      2      19.1939      0.00000
      3      20.2540      0.00000
      4      20.2540      0.00000
      5      22.2721      0.00000
      6      22.2721      0.00000

[...]

 k-point 110 :      -0.4500    0.4500    0.4500
  band No.  band energies     occupation
      1       3.2329      2.00000
      2       4.1142      2.00000
      3      15.8898      0.00000
      4      17.5474      0.00000
      5      19.3152      0.00000
      6      21.4644      0.00000

 soft charge-density along one line, spin component           1
         0         1         2         3         4         5         6         7         8         9
 total charge-density along one line

------------------------ aborting loop because EDIFF is reached ----------------------------------------

  FORCE on cell =-STRESS in cart. coord.  units (eV):
  Direction    XX          YY          ZZ          XY          YZ          ZX
  Alpha Z    -0.15333    -0.15333    -0.15333
  Ewald     -24.45224   -24.45224   -24.45224     0.00000     0.00000     0.00000
  Hartree     0.03487     0.03487     0.03487     0.00000     0.00000     0.00000
  E(xc)      -8.64135    -8.64135    -8.64135     0.00001     0.00001     0.00001
  Local       0.18479     0.18479     0.18479     0.00000     0.00000     0.00000
  n-local    19.30803    18.87838    19.07084     0.20638    -0.27701     0.00885
  augment    -1.02592    -1.02592    -1.02592     0.00000     0.00000     0.00000
  Kinetic    12.52391    10.86406    21.44013    -4.17148     4.68053    -0.00450
  Fock        0.00000     0.00000     0.00000     0.00000     0.00000     0.00000
  Total      -0.02472    -0.02472    -0.02472     0.00000     0.00000     0.00000
  in kB      -2.38528    -2.38528    -2.38528     0.00000     0.00000     0.00000

 VOLUME and BASIS-vectors are now :
  energy-cutoff  :      240.44
  volume of cell :       16.61
      direct lattice vectors                 reciprocal lattice vectors
     0.000000000  2.025000000  2.025000000    -0.246913580  0.246913580  0.246913580
     2.025000000  0.000000000  2.025000000     0.246913580 -0.246913580  0.246913580
     2.025000000  2.025000000  0.000000000     0.246913580  0.246913580 -0.246913580

  length of vectors
     2.863782464  2.863782464  2.863782464     0.427666866  0.427666866  0.427666866

 FORCES acting on ions
    electron-ion (+dipol)            ewald-force                    non-local-force                 convergence-correction
   0.105E-15 -.724E-15 -.271E-15   -.758E-16 -.122E-15 -.249E-16   0.000E+00 0.000E+00 0.207E-24   -.639E-18 -.441E-18 -.668E-17
   0.105E-15 -.724E-15 -.271E-15   -.758E-16 -.122E-15 -.249E-16   0.000E+00 0.000E+00 0.207E-24   -.639E-18 -.441E-18 -.668E-17

 POSITION                                       TOTAL-FORCE (eV/Angst)
      0.00000      0.00000      0.00000         0.000000      0.000000      0.000000
    total drift:                                0.000000      0.000000      0.000000

  FREE ENERGIE OF THE ION-ELECTRON SYSTEM (eV)
  free  energy   TOTEN  =        -3.68965669 eV

  energy  without entropy=       -3.68940345  energy(sigma->0) =       -3.68957228